peakDumbCharging = 33300; 
Machine = anon_enum(16); 
machineSpeed = [3700,3700,3700,3700,3700,3700,3700,3700,3700,3700,3700,3700,3700,3700,3700,3700]; 
machineLoad = [3700,3700,3700,3700,3700,3700,3700,3700,3700,3700,3700,3700,3700,3700,3700,3700]; 
Car = anon_enum(29); 
demandCar = [240,8720,1280,7800,2560,11680,1200,5680,6040,4400,5320,9560,13320,5440,12440,8200,12360,6960,9520,1520,4440,11120,38280,3800,3760,12080,21520,10920,19120]; 
arrivalCar = [71,66,65,65,64,63,63,62,60,60,59,59,58,58,58,57,56,56,52,49,48,46,42,41,38,36,29,25,23]; 
departureCar = [72,70,67,68,67,69,68,64,68,67,61,63,65,62,64,61,60,59,55,51,52,52,67,44,41,41,43,42,31]; 
